0 138 50
1 54 348
2 0 209
3 119 508
4 730 337
5 477 501
6 114 790
7 46 321
8 279 77
9 675 271
10 503 268
11 359 502
12 6 599
13 718 678
14 45 670
15 79 539
16 50 708
17 704 587
18 479 90
19 236 159
20 82 522
21 532 638
22 609 368
23 223 228
24 199 514
25 799 17
26 783 305
27 450 62
28 572 519
29 753 363
30 19 240
31 297 52
32 422 86
33 179 2
34 798 132
35 98 221
36 356 140
37 9 287
38 588 772
39 406 708
40 62 746
41 655 350
42 258 457
43 424 516
44 520 692
45 62 458
46 401 111
47 114 204
48 541 205
49 613 197
